p cnf 63 243
-1 -2 -3 0
1 2 -3 0
-1 2 3 0
1 -2 3 0
-4 3 0
-4 -1 0
-3 1 4 0
-6 4 0
-6 5 0
-4 -5 6 0
8 7 0
8 -3 0
-7 3 -8 0
-10 -5 0
-10 9 0
5 -9 10 0
11 -10 0
11 3 0
10 -3 -11 0
-8 -11 -12 0
8 11 -12 0
-8 11 12 0
8 -11 12 0
13 7 0
13 7 0
-7 -13 0
-13 3 -14 0
13 -3 -14 0
-13 -3 14 0
13 3 14 0
14 1 -15 0
-14 -1 -15 0
14 -1 15 0
-14 1 15 0
-16 15 0
-16 3 0
-15 -3 16 0
17 9 0
17 16 0
-9 -16 -17 0
12 -17 -18 0
-12 17 -18 0
12 17 18 0
-12 -17 18 0
19 6 0
19 18 0
-6 -18 -19 0
21 5 0
21 -20 0
-5 20 -21 0
22 23 -24 0
-22 -23 -24 0
22 -23 24 0
-22 23 24 0
24 -9 -25 0
-24 9 -25 0
24 9 25 0
-24 -9 25 0
-26 -21 0
-26 25 0
21 -25 26 0
-27 -5 0
-27 5 0
28 -14 0
28 24 0
14 -24 -28 0
-29 27 0
-29 28 0
-27 -28 29 0
-26 -29 -30 0
26 29 -30 0
-26 29 30 0
26 -29 30 0
-31 19 0
-31 -30 0
-19 30 31 0
15 32 -33 0
-15 -32 -33 0
15 -32 33 0
-15 32 33 0
-8 -2 -34 0
8 2 -34 0
-8 2 34 0
8 -2 34 0
-20 -34 -35 0
20 34 -35 0
-20 34 35 0
20 -34 35 0
33 35 -36 0
-33 -35 -36 0
33 -35 36 0
-33 35 36 0
-37 -31 0
-37 36 0
31 -36 37 0
10 38 -39 0
-10 -38 -39 0
10 -38 39 0
-10 38 39 0
3 39 -40 0
-3 -39 -40 0
3 -39 40 0
-3 39 40 0
5 -10 -41 0
-5 10 -41 0
5 10 41 0
-5 -10 41 0
-41 1 -42 0
41 -1 -42 0
-41 -1 42 0
41 1 42 0
9 -42 -43 0
-9 42 -43 0
9 42 43 0
-9 -42 43 0
43 7 -44 0
-43 -7 -44 0
43 -7 44 0
-43 7 44 0
-15 38 -45 0
15 -38 -45 0
-15 -38 45 0
15 38 45 0
44 -45 -46 0
-44 45 -46 0
44 45 46 0
-44 -45 46 0
47 3 0
47 -21 0
-3 21 -47 0
46 -47 -48 0
-46 47 -48 0
46 47 48 0
-46 -47 48 0
3 -15 -49 0
-3 15 -49 0
3 15 49 0
-3 -15 49 0
50 3 0
50 -24 0
-3 24 -50 0
-51 -49 0
-51 50 0
49 -50 51 0
52 -48 0
52 51 0
48 -51 -52 0
-40 52 -53 0
40 -52 -53 0
-40 -52 53 0
40 52 53 0
54 -20 0
54 5 0
20 -5 -54 0
-55 -53 0
-55 -54 0
53 54 55 0
-56 -37 0
-56 55 0
37 -55 56 0
-57 -41 0
-57 -34 0
41 34 57 0
3 14 -58 0
-3 -14 -58 0
3 -14 58 0
-3 14 58 0
59 57 0
59 58 0
-57 -58 -59 0
-39 -24 -60 0
39 24 -60 0
-39 24 60 0
39 -24 60 0
-60 10 -61 0
60 -10 -61 0
-60 -10 61 0
60 10 61 0
-59 61 -62 0
59 -61 -62 0
-59 -61 62 0
59 61 62 0
56 62 -63 0
-56 -62 -63 0
56 -62 63 0
-56 62 63 0
-57 32 51 -26 -30 0
-3 -49 0
-62 14 -37 4 0
-12 63 58 -31 29 -37 0
1 -42 12 -62 -11 63 0
-43 40 0
54 24 21 12 20 0
40 -15 -52 -44 -54 53 0
39 -3 -24 -47 0
16 2 27 43 0
-18 54 -34 -43 0
2 -42 15 0
35 42 52 0
42 -21 45 51 -59 31 0
30 43 15 -59 0
15 -17 -41 32 -26 0
-61 -11 34 30 0
-47 -9 -43 0
-5 -2 1 -28 0
44 34 38 7 0
-22 -17 -36 -15 -12 0
-45 57 -18 0
-19 51 0
2 -1 -40 -34 0
-49 58 -24 0
46 -52 40 6 0
54 22 -32 0
-28 -21 -44 -29 57 0
59 55 57 -2 1 49 0
45 51 12 -62 -40 0
-53 -35 -47 -13 0
-46 9 -5 -2 0
-14 62 -34 38 0
-25 18 0
14 -45 0
51 -32 57 0
8 22 44 30 0
-8 46 0
37 -20 0
-56 33 -38 2 46 9 0
-4 -41 0
8 33 -57 -55 -31 0
-53 25 -4 -63 0
3 -28 27 40 -2 48 0
63 35 23 0
-27 26 33 47 -59 0
-32 4 0
48 29 -59 24 -2 0
18 59 -20 15 0
-1 -31 55 21 62 -43 0
58 -15 -43 -50 60 0
-51 -31 -7 39 -63 -58 0
48 -55 47 44 -21 -41 0
61 16 -15 0
9 50 -23 8 0
59 44 27 39 -16 55 0
63 0
